c 1 A1
c 2 C4
c 3 C6
c 4 C7
c 5 C8
c 6 C9
c 7 C10
c 8 A5
c 9 C11
c 10 C13
c 11 C14
c 12 A3
c 13 C15
c 14 C16
c 15 C17
c 16 C18
c 17 C19
c 18 C20
c 19 A12
c 20 C21
c 21 C22
c 22 C23
c 23 A2
c 24 C24
c 25 C25
c 26 C26
p cnf 26 37
1 0
1 -23 0
1 -12 0
1 -2 0
1 -8 0
1 -3 0
1 -4 0
1 -5 0
1 -6 0
1 -7 0
8 -9 0
8 -19 0
8 -10 0
8 -11 0
12 -13 0
12 -14 0
12 -15 0
12 -16 0
12 -17 0
12 -18 0
13 -12 0
14 -12 0
15 -12 0
16 -12 0
17 -12 0
18 -12 0
19 -20 0
19 -21 0
19 -22 0
20 21 22 -19 0
23 -24 0
23 -25 0
23 -26 0
-15 -22 26 5 0
15 -22 26 -5 0
19 26 0
21 -5 0